Route #1: 8 51 21 5 39 31 37 49
Route #2: 53 60 11 20 6 19 50 46 40 2 42 30
Route #3: 57 15 54 16 26 41
Route #4: 18 63 32 29 14 27
Route #5: 58 33 35 12 48 45 52 59
Route #6: 25 62 22 24 9 17 55
Route #7: 44 43 4 3 10 13
Route #8: 23 56 34 38
Route #9: 47 61
Route #10: 7 28 36
cost 1637
